D = 2;
n = [ 2 1 ];

N = 8;
d = [ 1 1 1 1 2 2 2 2 ];
m = [
    [ 1.00 0.50 0.30 1.00 0.75 0.85 0.45 0.05 ];
    [ 0.50 1.00 0.90 0.30 0.95 0.65 0.50 0.60 ];
    [ 0.30 0.90 1.00 0.10 1.00 0.75 0.10 0.75 ];
    [ 1.00 0.30 0.10 1.00 0.35 0.95 0.70 0.15 ];
    [ 0.75 0.95 1.00 0.35 1.00 0.35 0.90 0.70 ];
    [ 0.85 0.65 0.75 0.95 0.35 1.00 0.30 0.70 ];
    [ 0.45 0.50 0.10 0.70 0.90 0.30 1.00 0.65 ];
    [ 0.05 0.60 0.75 0.15 0.70 0.70 0.65 1.00 ];
];
